(declare-const __VERIFIER_assert__cond___18 Int)
(declare-const havoc Int)
(declare-const |main____CPAchecker_TMP_0':148:169:176:263:272| Int)
(declare-const |havoc:3:62:268| Int)
(declare-const |__VERIFIER_assert__cond___17':150:168:175:262:271| Int)
(declare-const |__tmp_383_0':146:170:177:264:273| Int)
(declare-const |K:165:166:173:260:269| Int)
(declare-const |main____CPAchecker_TMP_0___0':149:172:179:266:275| Int)
(declare-const |__VERIFIER_assert__cond___18':151:171:178:265:274| Int)
(declare-const |havoc:9:63:145:225:267:276| Int)
(declare-const main____CPAchecker_TMP_0___0 Int)
(declare-const __VERIFIER_assert__cond___17 Int)
(declare-const |main__t':147:167:174:261:270| Int)
(assert (and (<= (+ (- havoc) 1) 0) (not (= (+ (- havoc) 1) 0))
               (= |havoc:3:62:268| 0)
               (not (= (ite (<= (+ (- havoc) 1) 0) 1 0) 0))
               (or (not (<= (- |K:165:166:173:260:269|) 0))
                     (= (+ |main__t':147:167:174:261:270|
                             (- |K:165:166:173:260:269|)) 0))
               (or (not (and (<= (- |K:165:166:173:260:269|) 0)
                               (<= |K:165:166:173:260:269| 0)))
                     (= (+ (- __VERIFIER_assert__cond___17)
                             |__VERIFIER_assert__cond___17':150:168:175:262:271|) 0))
               (or (not (<= (+ (- |K:165:166:173:260:269|) 1) 0))
                     (= (+ |__VERIFIER_assert__cond___17':150:168:175:262:271|
                             -1) 0))
               (or (not (and (<= (- |K:165:166:173:260:269|) 0)
                               (<= |K:165:166:173:260:269| 0)))
                     (= (+ |main____CPAchecker_TMP_0':148:169:176:263:272|
                             (- |havoc:3:62:268|)) 0))
               (or (not (<= (+ (- |K:165:166:173:260:269|) 1) 0))
                     (= |main____CPAchecker_TMP_0':148:169:176:263:272| 0))
               (or (not (and (<= (- |K:165:166:173:260:269|) 0)
                               (<= |K:165:166:173:260:269| 0)))
                     (= (+ |__tmp_383_0':146:170:177:264:273|
                             (- |havoc:3:62:268|)) 0))
               (or (not (<= (+ (- |K:165:166:173:260:269|) 1) 0))
                     (= |__tmp_383_0':146:170:177:264:273| 0))
               (or (not (and (<= (- |K:165:166:173:260:269|) 0)
                               (<= |K:165:166:173:260:269| 0)))
                     (= (+ (- __VERIFIER_assert__cond___18)
                             |__VERIFIER_assert__cond___18':151:171:178:265:274|) 0))
               (or (not (<= (+ (- |K:165:166:173:260:269|) 1) 0))
                     (= (+ |__VERIFIER_assert__cond___18':151:171:178:265:274|
                             -1) 0))
               (or (not (and (<= (- |K:165:166:173:260:269|) 0)
                               (<= |K:165:166:173:260:269| 0)))
                     (= (+ (- main____CPAchecker_TMP_0___0)
                             |main____CPAchecker_TMP_0___0':149:172:179:266:275|) 0))
               (or (not (<= (+ (- |K:165:166:173:260:269|) 1) 0))
                     (= |main____CPAchecker_TMP_0___0':149:172:179:266:275| 0))
               (or (and (= |K:165:166:173:260:269| 0)
                          (= (+ __VERIFIER_assert__cond___18
                                  (- |__VERIFIER_assert__cond___18':151:171:178:265:274|)) 0)
                          (= (+ __VERIFIER_assert__cond___17
                                  (- |__VERIFIER_assert__cond___17':150:168:175:262:271|)) 0)
                          (= (+ main____CPAchecker_TMP_0___0
                                  (- |main____CPAchecker_TMP_0___0':149:172:179:266:275|)) 0)
                          (= (+ (- |main____CPAchecker_TMP_0':148:169:176:263:272|)
                                  |havoc:3:62:268|) 0)
                          (= (- |main__t':147:167:174:261:270|) 0)
                          (= (+ (- |__tmp_383_0':146:170:177:264:273|)
                                  |havoc:3:62:268|) 0))
                     (and (<= (+ (- |K:165:166:173:260:269|) 1) 0)
                            (= |havoc:3:62:268| 0) (= |havoc:3:62:268| 0)
                            (<= (+ (- havoc) 3) 0)
                            (= (+ |__VERIFIER_assert__cond___18':151:171:178:265:274|
                                    -1) 0)
                            (= (+ |__VERIFIER_assert__cond___17':150:168:175:262:271|
                                    -1) 0)
                            (= |main____CPAchecker_TMP_0':148:169:176:263:272| 0)
                            (= |main____CPAchecker_TMP_0___0':149:172:179:266:275| 0)
                            (= |__tmp_383_0':146:170:177:264:273| 0)
                            (<= (+ |main__t':147:167:174:261:270| (- havoc) 2) 0)
                            (<= (+ (- |main__t':147:167:174:261:270|) 1) 0)))
               (<= (- |K:165:166:173:260:269|) 0)
               (= |__tmp_383_0':146:170:177:264:273| 0)
               (= |main____CPAchecker_TMP_0':148:169:176:263:272| 0)
               (<= (- |main__t':147:167:174:261:270|) 0)
               (< (+ (- havoc) 1) 0) (= |__tmp_383_0':146:170:177:264:273| 0)
               (= |main____CPAchecker_TMP_0':148:169:176:263:272| 0)
               (not (= (+ |main__t':147:167:174:261:270| (- havoc) 2) 0))
               (not (= |havoc:9:63:145:225:267:276| 0))
               (= (ite (<= (+ (- |main__t':147:167:174:261:270|) -1) 0) 1 0) 0)))
(check-sat)
